c "random instance"
p edges 150 2204
e 1 6
e 1 12
e 1 22
e 1 24
e 1 29
e 1 36
e 1 44
e 1 45
e 1 49
e 1 54
e 1 66
e 1 70
e 1 71
e 1 76
e 1 82
e 1 86
e 1 91
e 1 104
e 1 111
e 1 114
e 1 116
e 1 126
e 1 138
e 1 141
e 1 142
e 2 8
e 2 20
e 2 26
e 2 31
e 2 36
e 2 38
e 2 45
e 2 49
e 2 55
e 2 64
e 2 65
e 2 69
e 2 70
e 2 71
e 2 73
e 2 79
e 2 91
e 2 98
e 2 100
e 2 107
e 2 109
e 2 111
e 2 112
e 2 137
e 2 141
e 2 142
e 2 148
e 3 8
e 3 9
e 3 10
e 3 23
e 3 25
e 3 34
e 3 39
e 3 45
e 3 50
e 3 73
e 3 75
e 3 82
e 3 92
e 3 93
e 3 98
e 3 100
e 3 104
e 3 111
e 3 115
e 3 116
e 3 120
e 3 125
e 3 127
e 3 130
e 3 134
e 3 138
e 3 141
e 3 146
e 3 147
e 3 148
e 4 6
e 4 7
e 4 9
e 4 12
e 4 16
e 4 18
e 4 33
e 4 38
e 4 39
e 4 51
e 4 54
e 4 62
e 4 69
e 4 71
e 4 84
e 4 89
e 4 92
e 4 94
e 4 96
e 4 98
e 4 100
e 4 105
e 4 109
e 4 120
e 4 124
e 4 127
e 4 129
e 4 136
e 4 138
e 4 145
e 4 147
e 5 11
e 5 14
e 5 15
e 5 17
e 5 31
e 5 36
e 5 37
e 5 42
e 5 58
e 5 59
e 5 61
e 5 63
e 5 68
e 5 72
e 5 73
e 5 85
e 5 87
e 5 88
e 5 92
e 5 99
e 5 104
e 5 105
e 5 113
e 5 129
e 5 135
e 5 141
e 6 9
e 6 10
e 6 18
e 6 20
e 6 24
e 6 28
e 6 30
e 6 31
e 6 36
e 6 56
e 6 61
e 6 63
e 6 65
e 6 74
e 6 77
e 6 79
e 6 90
e 6 94
e 6 96
e 6 109
e 6 114
e 6 116
e 6 118
e 6 126
e 6 131
e 6 132
e 6 139
e 7 17
e 7 18
e 7 33
e 7 36
e 7 39
e 7 45
e 7 46
e 7 51
e 7 52
e 7 53
e 7 56
e 7 59
e 7 61
e 7 66
e 7 74
e 7 82
e 7 83
e 7 87
e 7 90
e 7 92
e 7 102
e 7 104
e 7 105
e 7 112
e 7 116
e 7 118
e 7 121
e 7 135
e 7 146
e 7 147
e 7 149
e 7 150
e 8 10
e 8 12
e 8 21
e 8 23
e 8 25
e 8 29
e 8 31
e 8 32
e 8 34
e 8 35
e 8 43
e 8 47
e 8 48
e 8 54
e 8 63
e 8 66
e 8 75
e 8 77
e 8 81
e 8 90
e 8 91
e 8 93
e 8 94
e 8 103
e 8 106
e 8 110
e 8 113
e 8 122
e 8 123
e 8 124
e 8 125
e 8 129
e 8 130
e 8 131
e 8 145
e 9 13
e 9 19
e 9 21
e 9 28
e 9 29
e 9 32
e 9 34
e 9 46
e 9 50
e 9 67
e 9 68
e 9 70
e 9 76
e 9 82
e 9 84
e 9 93
e 9 94
e 9 103
e 9 107
e 9 108
e 9 110
e 9 111
e 9 118
e 9 124
e 9 127
e 9 133
e 9 135
e 9 138
e 9 144
e 9 147
e 9 149
e 10 11
e 10 12
e 10 16
e 10 20
e 10 31
e 10 46
e 10 48
e 10 54
e 10 56
e 10 58
e 10 67
e 10 71
e 10 75
e 10 77
e 10 78
e 10 86
e 10 88
e 10 91
e 10 108
e 10 117
e 10 128
e 10 140
e 10 144
e 10 145
e 11 19
e 11 21
e 11 23
e 11 24
e 11 25
e 11 28
e 11 31
e 11 36
e 11 39
e 11 40
e 11 45
e 11 49
e 11 51
e 11 59
e 11 62
e 11 66
e 11 69
e 11 70
e 11 78
e 11 79
e 11 81
e 11 84
e 11 85
e 11 93
e 11 95
e 11 96
e 11 102
e 11 109
e 11 115
e 11 117
e 11 122
e 11 132
e 11 135
e 11 138
e 11 145
e 12 16
e 12 19
e 12 20
e 12 27
e 12 28
e 12 29
e 12 32
e 12 33
e 12 44
e 12 57
e 12 58
e 12 61
e 12 64
e 12 67
e 12 68
e 12 69
e 12 72
e 12 73
e 12 74
e 12 79
e 12 83
e 12 86
e 12 90
e 12 97
e 12 100
e 12 104
e 12 105
e 12 109
e 12 116
e 12 124
e 12 126
e 12 132
e 12 134
e 12 137
e 12 138
e 12 142
e 12 147
e 13 15
e 13 16
e 13 17
e 13 18
e 13 19
e 13 24
e 13 27
e 13 30
e 13 34
e 13 38
e 13 41
e 13 42
e 13 45
e 13 47
e 13 51
e 13 52
e 13 58
e 13 62
e 13 74
e 13 78
e 13 84
e 13 91
e 13 93
e 13 95
e 13 99
e 13 105
e 13 108
e 13 111
e 13 113
e 13 114
e 13 117
e 13 120
e 13 124
e 13 140
e 13 142
e 13 148
e 14 21
e 14 22
e 14 28
e 14 43
e 14 45
e 14 47
e 14 52
e 14 61
e 14 91
e 14 94
e 14 96
e 14 100
e 14 102
e 14 113
e 14 117
e 14 120
e 14 122
e 14 127
e 14 138
e 14 139
e 14 143
e 14 146
e 14 148
e 14 149
e 14 150
e 15 16
e 15 26
e 15 31
e 15 36
e 15 41
e 15 42
e 15 48
e 15 50
e 15 56
e 15 57
e 15 63
e 15 67
e 15 80
e 15 87
e 15 89
e 15 91
e 15 92
e 15 93
e 15 101
e 15 104
e 15 107
e 15 119
e 15 123
e 15 124
e 15 131
e 15 136
e 15 139
e 15 142
e 15 145
e 15 148
e 15 149
e 16 22
e 16 30
e 16 31
e 16 36
e 16 38
e 16 42
e 16 46
e 16 54
e 16 69
e 16 76
e 16 81
e 16 88
e 16 91
e 16 93
e 16 94
e 16 98
e 16 100
e 16 103
e 16 113
e 16 116
e 16 120
e 16 125
e 16 131
e 16 140
e 16 146
e 17 18
e 17 20
e 17 24
e 17 25
e 17 32
e 17 36
e 17 37
e 17 39
e 17 42
e 17 47
e 17 72
e 17 75
e 17 76
e 17 77
e 17 89
e 17 94
e 17 99
e 17 100
e 17 106
e 17 108
e 17 115
e 17 118
e 17 124
e 17 132
e 17 135
e 17 138
e 17 149
e 18 35
e 18 39
e 18 41
e 18 46
e 18 59
e 18 61
e 18 71
e 18 84
e 18 85
e 18 92
e 18 95
e 18 98
e 18 113
e 18 130
e 18 134
e 18 136
e 18 145
e 18 146
e 18 150
e 19 21
e 19 28
e 19 40
e 19 44
e 19 46
e 19 50
e 19 55
e 19 60
e 19 68
e 19 75
e 19 76
e 19 81
e 19 85
e 19 90
e 19 92
e 19 94
e 19 95
e 19 109
e 19 116
e 19 117
e 19 125
e 19 128
e 19 139
e 19 145
e 19 150
e 20 24
e 20 35
e 20 36
e 20 44
e 20 47
e 20 49
e 20 56
e 20 69
e 20 70
e 20 72
e 20 76
e 20 82
e 20 83
e 20 97
e 20 103
e 20 105
e 20 109
e 20 114
e 20 115
e 20 118
e 20 121
e 20 124
e 20 128
e 20 132
e 20 133
e 20 135
e 20 140
e 20 144
e 20 145
e 20 146
e 20 149
e 21 24
e 21 30
e 21 34
e 21 39
e 21 43
e 21 48
e 21 55
e 21 60
e 21 63
e 21 73
e 21 76
e 21 81
e 21 83
e 21 90
e 21 92
e 21 94
e 21 98
e 21 99
e 21 103
e 21 104
e 21 108
e 21 110
e 21 130
e 21 132
e 21 144
e 21 149
e 22 25
e 22 27
e 22 31
e 22 32
e 22 33
e 22 38
e 22 40
e 22 60
e 22 73
e 22 74
e 22 81
e 22 84
e 22 104
e 22 105
e 22 111
e 22 119
e 22 121
e 22 127
e 22 131
e 22 143
e 23 25
e 23 27
e 23 29
e 23 33
e 23 38
e 23 42
e 23 46
e 23 60
e 23 64
e 23 65
e 23 67
e 23 72
e 23 75
e 23 76
e 23 80
e 23 82
e 23 85
e 23 86
e 23 90
e 23 92
e 23 95
e 23 97
e 23 102
e 23 112
e 23 113
e 23 117
e 23 132
e 23 136
e 23 137
e 23 138
e 23 141
e 23 148
e 23 150
e 24 25
e 24 30
e 24 31
e 24 38
e 24 44
e 24 45
e 24 61
e 24 63
e 24 66
e 24 78
e 24 90
e 24 91
e 24 106
e 24 107
e 24 111
e 24 124
e 24 125
e 24 130
e 24 147
e 25 34
e 25 44
e 25 45
e 25 46
e 25 56
e 25 61
e 25 63
e 25 71
e 25 73
e 25 76
e 25 84
e 25 86
e 25 96
e 25 97
e 25 100
e 25 101
e 25 102
e 25 103
e 25 107
e 25 111
e 25 112
e 25 119
e 25 121
e 25 124
e 25 125
e 25 133
e 25 136
e 25 141
e 25 146
e 26 27
e 26 43
e 26 49
e 26 59
e 26 63
e 26 65
e 26 66
e 26 69
e 26 71
e 26 80
e 26 83
e 26 94
e 26 99
e 26 106
e 26 111
e 26 120
e 26 124
e 26 125
e 26 128
e 26 132
e 26 135
e 26 148
e 27 32
e 27 39
e 27 44
e 27 49
e 27 51
e 27 54
e 27 63
e 27 65
e 27 70
e 27 71
e 27 78
e 27 80
e 27 81
e 27 85
e 27 88
e 27 95
e 27 100
e 27 101
e 27 106
e 27 112
e 27 126
e 27 135
e 27 137
e 27 143
e 27 146
e 27 150
e 28 33
e 28 34
e 28 36
e 28 38
e 28 39
e 28 42
e 28 47
e 28 51
e 28 53
e 28 66
e 28 68
e 28 69
e 28 72
e 28 74
e 28 76
e 28 77
e 28 78
e 28 82
e 28 84
e 28 85
e 28 89
e 28 93
e 28 96
e 28 98
e 28 107
e 28 116
e 28 121
e 28 122
e 28 123
e 28 137
e 28 139
e 29 46
e 29 47
e 29 48
e 29 59
e 29 61
e 29 64
e 29 66
e 29 67
e 29 70
e 29 93
e 29 98
e 29 99
e 29 101
e 29 103
e 29 105
e 29 109
e 29 111
e 29 120
e 29 121
e 29 125
e 29 127
e 29 129
e 29 135
e 29 136
e 29 137
e 29 142
e 29 143
e 29 144
e 29 147
e 29 148
e 30 34
e 30 35
e 30 48
e 30 51
e 30 55
e 30 56
e 30 60
e 30 62
e 30 68
e 30 70
e 30 71
e 30 72
e 30 73
e 30 74
e 30 76
e 30 77
e 30 78
e 30 79
e 30 80
e 30 81
e 30 88
e 30 92
e 30 99
e 30 111
e 30 112
e 30 113
e 30 117
e 30 118
e 30 122
e 30 123
e 30 124
e 30 129
e 30 133
e 30 137
e 30 138
e 30 140
e 30 145
e 31 41
e 31 42
e 31 43
e 31 44
e 31 58
e 31 64
e 31 71
e 31 75
e 31 79
e 31 86
e 31 93
e 31 96
e 31 97
e 31 98
e 31 99
e 31 100
e 31 101
e 31 103
e 31 108
e 31 111
e 31 114
e 31 129
e 31 138
e 31 141
e 31 144
e 31 147
e 31 150
e 32 36
e 32 46
e 32 62
e 32 64
e 32 73
e 32 85
e 32 86
e 32 90
e 32 94
e 32 104
e 32 105
e 32 133
e 32 135
e 32 142
e 32 146
e 32 147
e 32 149
e 32 150
e 33 39
e 33 58
e 33 64
e 33 65
e 33 77
e 33 80
e 33 84
e 33 89
e 33 103
e 33 109
e 33 124
e 33 126
e 33 130
e 33 131
e 33 132
e 33 134
e 33 135
e 33 147
e 33 148
e 34 41
e 34 45
e 34 48
e 34 51
e 34 67
e 34 73
e 34 85
e 34 89
e 34 103
e 34 108
e 34 116
e 34 126
e 34 127
e 34 129
e 34 136
e 34 139
e 35 38
e 35 49
e 35 60
e 35 67
e 35 68
e 35 75
e 35 76
e 35 77
e 35 82
e 35 94
e 35 97
e 35 99
e 35 103
e 35 126
e 35 135
e 35 137
e 35 143
e 35 144
e 35 147
e 35 149
e 36 42
e 36 43
e 36 52
e 36 56
e 36 57
e 36 59
e 36 61
e 36 66
e 36 69
e 36 84
e 36 85
e 36 91
e 36 98
e 36 102
e 36 106
e 36 114
e 36 121
e 36 122
e 36 149
e 36 150
e 37 44
e 37 47
e 37 54
e 37 62
e 37 63
e 37 64
e 37 70
e 37 77
e 37 87
e 37 88
e 37 89
e 37 91
e 37 96
e 37 103
e 37 108
e 37 112
e 37 113
e 37 122
e 37 128
e 37 131
e 37 141
e 38 40
e 38 41
e 38 51
e 38 52
e 38 53
e 38 58
e 38 64
e 38 82
e 38 101
e 38 102
e 38 113
e 38 122
e 38 133
e 38 136
e 38 139
e 38 146
e 39 45
e 39 49
e 39 52
e 39 58
e 39 61
e 39 71
e 39 74
e 39 83
e 39 87
e 39 111
e 39 114
e 39 115
e 39 121
e 39 122
e 39 123
e 39 128
e 39 129
e 39 132
e 39 135
e 39 142
e 40 41
e 40 49
e 40 58
e 40 72
e 40 73
e 40 78
e 40 80
e 40 89
e 40 93
e 40 97
e 40 100
e 40 103
e 40 109
e 40 112
e 40 115
e 40 116
e 40 117
e 40 120
e 40 123
e 40 124
e 40 125
e 40 126
e 40 132
e 40 138
e 41 45
e 41 54
e 41 55
e 41 57
e 41 58
e 41 71
e 41 73
e 41 75
e 41 76
e 41 91
e 41 92
e 41 98
e 41 99
e 41 101
e 41 102
e 41 109
e 41 116
e 41 126
e 41 133
e 41 136
e 41 137
e 41 146
e 41 147
e 41 148
e 42 48
e 42 52
e 42 58
e 42 62
e 42 64
e 42 65
e 42 71
e 42 82
e 42 95
e 42 103
e 42 104
e 42 106
e 42 108
e 42 109
e 42 120
e 42 127
e 42 130
e 42 133
e 42 137
e 42 140
e 42 146
e 43 44
e 43 46
e 43 47
e 43 52
e 43 61
e 43 65
e 43 68
e 43 69
e 43 70
e 43 73
e 43 77
e 43 80
e 43 84
e 43 88
e 43 94
e 43 107
e 43 109
e 43 113
e 43 121
e 43 126
e 43 131
e 43 143
e 44 53
e 44 54
e 44 55
e 44 58
e 44 62
e 44 73
e 44 76
e 44 77
e 44 83
e 44 85
e 44 89
e 44 90
e 44 98
e 44 103
e 44 106
e 44 109
e 44 117
e 44 119
e 44 123
e 44 124
e 44 126
e 44 132
e 44 135
e 44 139
e 44 140
e 44 141
e 44 144
e 44 148
e 44 149
e 45 46
e 45 58
e 45 59
e 45 60
e 45 71
e 45 85
e 45 87
e 45 88
e 45 90
e 45 98
e 45 100
e 45 104
e 45 106
e 45 107
e 45 109
e 45 135
e 45 138
e 45 144
e 45 145
e 45 147
e 46 49
e 46 50
e 46 51
e 46 54
e 46 60
e 46 68
e 46 74
e 46 82
e 46 85
e 46 94
e 46 95
e 46 104
e 46 114
e 46 115
e 46 122
e 46 129
e 46 134
e 47 59
e 47 62
e 47 63
e 47 75
e 47 76
e 47 81
e 47 82
e 47 87
e 47 92
e 47 94
e 47 96
e 47 104
e 47 109
e 47 111
e 47 122
e 47 127
e 47 133
e 47 138
e 47 141
e 47 144
e 47 147
e 47 149
e 47 150
e 48 51
e 48 54
e 48 55
e 48 58
e 48 59
e 48 75
e 48 83
e 48 87
e 48 88
e 48 89
e 48 94
e 48 96
e 48 113
e 48 114
e 48 122
e 48 130
e 48 148
e 49 54
e 49 63
e 49 73
e 49 79
e 49 82
e 49 85
e 49 88
e 49 103
e 49 107
e 49 109
e 49 117
e 49 119
e 49 127
e 49 134
e 49 135
e 49 136
e 49 137
e 49 139
e 49 144
e 49 149
e 49 150
e 50 54
e 50 59
e 50 62
e 50 68
e 50 69
e 50 75
e 50 77
e 50 82
e 50 96
e 50 104
e 50 107
e 50 111
e 50 117
e 50 122
e 50 127
e 50 134
e 50 135
e 50 136
e 50 139
e 50 142
e 50 143
e 50 145
e 50 148
e 51 57
e 51 64
e 51 79
e 51 88
e 51 89
e 51 97
e 51 103
e 51 120
e 51 128
e 51 135
e 52 60
e 52 64
e 52 68
e 52 87
e 52 88
e 52 91
e 52 92
e 52 93
e 52 98
e 52 99
e 52 101
e 52 104
e 52 109
e 52 111
e 52 113
e 52 121
e 52 123
e 52 133
e 52 135
e 52 141
e 52 143
e 52 148
e 52 149
e 53 59
e 53 60
e 53 62
e 53 73
e 53 79
e 53 81
e 53 83
e 53 88
e 53 90
e 53 92
e 53 93
e 53 95
e 53 100
e 53 108
e 53 113
e 53 114
e 53 115
e 53 124
e 53 126
e 53 133
e 53 134
e 53 144
e 53 146
e 53 148
e 54 84
e 54 86
e 54 89
e 54 93
e 54 96
e 54 98
e 54 108
e 54 110
e 54 111
e 54 115
e 54 116
e 54 117
e 54 121
e 54 122
e 54 123
e 54 124
e 54 128
e 54 129
e 54 133
e 54 134
e 54 137
e 54 143
e 54 147
e 55 66
e 55 67
e 55 75
e 55 89
e 55 94
e 55 95
e 55 112
e 55 125
e 55 130
e 55 135
e 55 139
e 55 141
e 56 59
e 56 65
e 56 69
e 56 77
e 56 86
e 56 92
e 56 94
e 56 113
e 56 117
e 56 128
e 56 136
e 56 138
e 56 147
e 57 58
e 57 68
e 57 69
e 57 75
e 57 76
e 57 80
e 57 81
e 57 83
e 57 89
e 57 91
e 57 95
e 57 98
e 57 104
e 57 109
e 57 111
e 57 112
e 57 117
e 57 122
e 57 130
e 57 136
e 57 138
e 57 147
e 57 148
e 58 60
e 58 62
e 58 64
e 58 65
e 58 71
e 58 74
e 58 83
e 58 104
e 58 105
e 58 112
e 58 114
e 58 116
e 58 129
e 58 138
e 59 61
e 59 66
e 59 70
e 59 71
e 59 76
e 59 85
e 59 92
e 59 104
e 59 112
e 59 114
e 59 118
e 59 119
e 59 124
e 59 125
e 59 128
e 59 142
e 59 145
e 59 146
e 59 148
e 59 149
e 59 150
e 60 61
e 60 64
e 60 65
e 60 72
e 60 73
e 60 75
e 60 102
e 60 108
e 60 112
e 60 119
e 60 123
e 60 124
e 60 125
e 60 132
e 60 135
e 60 144
e 61 66
e 61 69
e 61 73
e 61 76
e 61 77
e 61 79
e 61 80
e 61 81
e 61 82
e 61 84
e 61 92
e 61 108
e 61 116
e 61 117
e 61 122
e 61 126
e 61 131
e 61 132
e 61 137
e 61 140
e 61 141
e 61 145
e 62 65
e 62 67
e 62 71
e 62 72
e 62 78
e 62 82
e 62 86
e 62 87
e 62 93
e 62 98
e 62 100
e 62 105
e 62 108
e 62 111
e 62 116
e 62 117
e 62 122
e 62 126
e 62 134
e 62 137
e 62 138
e 62 143
e 63 67
e 63 76
e 63 79
e 63 89
e 63 92
e 63 97
e 63 101
e 63 115
e 63 118
e 63 119
e 63 120
e 63 121
e 63 124
e 63 127
e 63 128
e 63 130
e 63 131
e 63 134
e 63 150
e 64 65
e 64 66
e 64 67
e 64 82
e 64 88
e 64 90
e 64 93
e 64 102
e 64 103
e 64 104
e 64 112
e 64 115
e 64 117
e 64 118
e 64 120
e 64 124
e 64 125
e 64 130
e 64 136
e 64 139
e 64 146
e 64 148
e 64 150
e 65 68
e 65 75
e 65 80
e 65 82
e 65 91
e 65 96
e 65 101
e 65 120
e 65 127
e 65 136
e 65 138
e 65 146
e 66 70
e 66 74
e 66 79
e 66 96
e 66 97
e 66 101
e 66 102
e 66 104
e 66 107
e 66 109
e 66 121
e 66 122
e 66 130
e 66 138
e 66 143
e 67 69
e 67 75
e 67 80
e 67 83
e 67 85
e 67 87
e 67 88
e 67 90
e 67 94
e 67 95
e 67 103
e 67 104
e 67 105
e 67 106
e 67 107
e 67 116
e 67 128
e 67 130
e 67 144
e 67 148
e 68 69
e 68 74
e 68 79
e 68 92
e 68 95
e 68 99
e 68 100
e 68 103
e 68 114
e 68 122
e 68 123
e 68 125
e 68 127
e 68 128
e 68 131
e 68 140
e 68 145
e 68 150
e 69 81
e 69 82
e 69 95
e 69 96
e 69 97
e 69 99
e 69 101
e 69 103
e 69 104
e 69 108
e 69 110
e 69 117
e 69 135
e 69 141
e 69 144
e 69 146
e 69 147
e 70 72
e 70 76
e 70 79
e 70 90
e 70 102
e 70 113
e 70 114
e 70 118
e 70 126
e 70 131
e 70 132
e 70 138
e 70 144
e 71 75
e 71 79
e 71 81
e 71 88
e 71 91
e 71 94
e 71 96
e 71 97
e 71 100
e 71 103
e 71 104
e 71 105
e 71 108
e 71 112
e 71 128
e 71 133
e 71 136
e 71 139
e 71 141
e 71 144
e 72 74
e 72 75
e 72 78
e 72 88
e 72 97
e 72 98
e 72 102
e 72 106
e 72 123
e 72 129
e 72 135
e 72 139
e 72 141
e 72 144
e 73 75
e 73 81
e 73 87
e 73 91
e 73 98
e 73 107
e 73 109
e 73 120
e 73 121
e 73 132
e 73 134
e 73 136
e 73 139
e 73 142
e 73 143
e 73 144
e 74 76
e 74 79
e 74 81
e 74 86
e 74 97
e 74 106
e 74 107
e 74 110
e 74 118
e 74 119
e 74 120
e 74 130
e 74 136
e 74 140
e 75 84
e 75 86
e 75 88
e 75 94
e 75 104
e 75 107
e 75 108
e 75 114
e 75 115
e 75 117
e 75 119
e 75 129
e 75 131
e 75 148
e 76 78
e 76 88
e 76 91
e 76 93
e 76 96
e 76 103
e 76 106
e 76 123
e 76 124
e 76 125
e 76 134
e 76 138
e 76 150
e 77 85
e 77 94
e 77 107
e 77 112
e 77 117
e 77 119
e 77 120
e 77 121
e 77 133
e 77 140
e 77 143
e 77 146
e 77 150
e 78 82
e 78 88
e 78 98
e 78 108
e 78 118
e 78 132
e 78 134
e 78 142
e 78 150
e 79 91
e 79 95
e 79 112
e 79 113
e 79 117
e 79 124
e 79 126
e 79 133
e 80 81
e 80 88
e 80 102
e 80 105
e 80 117
e 80 118
e 80 125
e 80 129
e 80 134
e 80 135
e 80 147
e 80 148
e 81 86
e 81 92
e 81 96
e 81 101
e 81 113
e 81 124
e 81 127
e 81 131
e 81 136
e 81 149
e 82 91
e 82 92
e 82 97
e 82 99
e 82 103
e 82 106
e 82 128
e 82 132
e 82 134
e 82 135
e 82 136
e 82 139
e 82 145
e 83 92
e 83 96
e 83 99
e 83 100
e 83 102
e 83 112
e 83 121
e 83 129
e 83 135
e 83 140
e 83 143
e 83 147
e 84 105
e 84 109
e 84 115
e 84 117
e 84 123
e 84 129
e 84 150
e 85 89
e 85 94
e 85 100
e 85 103
e 85 105
e 85 106
e 85 107
e 85 112
e 85 113
e 85 115
e 85 121
e 85 126
e 85 132
e 85 133
e 85 136
e 85 138
e 85 140
e 85 145
e 86 93
e 86 99
e 86 101
e 86 111
e 86 128
e 86 129
e 86 132
e 86 138
e 86 142
e 86 145
e 87 88
e 87 90
e 87 95
e 87 100
e 87 101
e 87 115
e 87 124
e 87 125
e 87 126
e 87 130
e 87 137
e 87 145
e 88 89
e 88 95
e 88 102
e 88 109
e 88 112
e 88 116
e 88 136
e 88 137
e 88 138
e 89 94
e 89 116
e 89 119
e 89 122
e 89 124
e 89 126
e 89 129
e 89 139
e 89 143
e 89 149
e 89 150
e 90 102
e 90 105
e 90 109
e 90 112
e 90 115
e 90 120
e 90 125
e 90 130
e 90 144
e 90 148
e 90 150
e 91 94
e 91 99
e 91 100
e 91 104
e 91 105
e 91 106
e 91 116
e 91 124
e 91 125
e 91 128
e 91 130
e 91 146
e 92 110
e 92 123
e 92 125
e 92 131
e 92 147
e 92 150
e 93 106
e 93 109
e 93 111
e 93 115
e 93 119
e 93 132
e 93 138
e 93 140
e 93 142
e 94 103
e 94 104
e 94 111
e 94 115
e 94 134
e 94 137
e 94 148
e 95 100
e 95 121
e 95 126
e 95 129
e 95 131
e 95 132
e 95 141
e 95 149
e 96 99
e 96 117
e 96 118
e 96 123
e 96 128
e 96 136
e 96 137
e 96 139
e 96 141
e 96 146
e 97 98
e 97 99
e 97 102
e 97 106
e 97 114
e 97 122
e 97 123
e 97 128
e 97 130
e 97 134
e 97 138
e 98 102
e 98 106
e 98 108
e 98 113
e 98 116
e 98 118
e 98 119
e 98 120
e 98 131
e 98 140
e 98 142
e 98 150
e 99 105
e 99 106
e 99 120
e 99 123
e 99 132
e 99 146
e 99 147
e 99 149
e 99 150
e 100 104
e 100 106
e 100 108
e 100 109
e 100 114
e 100 120
e 100 121
e 100 123
e 100 125
e 100 131
e 100 136
e 100 141
e 100 142
e 100 144
e 100 145
e 100 150
e 101 106
e 101 109
e 101 119
e 101 125
e 101 135
e 101 137
e 101 141
e 101 146
e 102 126
e 102 128
e 102 130
e 102 132
e 102 133
e 102 141
e 102 149
e 103 143
e 103 148
e 104 109
e 104 114
e 104 136
e 104 137
e 104 139
e 104 140
e 104 148
e 105 107
e 105 128
e 105 130
e 105 131
e 105 135
e 105 140
e 105 148
e 106 108
e 106 119
e 106 126
e 106 127
e 106 130
e 106 137
e 106 138
e 106 143
e 106 145
e 107 108
e 107 113
e 107 118
e 107 122
e 107 124
e 107 125
e 107 132
e 107 138
e 107 141
e 107 142
e 107 146
e 107 150
e 108 114
e 108 124
e 108 125
e 108 128
e 108 136
e 108 142
e 108 145
e 108 147
e 109 118
e 109 120
e 109 126
e 109 127
e 109 132
e 109 134
e 109 147
e 110 112
e 110 114
e 110 118
e 110 133
e 110 135
e 110 139
e 111 112
e 111 126
e 111 132
e 111 136
e 111 140
e 111 147
e 112 125
e 112 135
e 112 145
e 112 147
e 113 116
e 113 118
e 113 119
e 113 122
e 113 125
e 113 127
e 113 128
e 113 130
e 113 132
e 113 137
e 113 140
e 113 144
e 114 116
e 114 118
e 114 119
e 114 127
e 114 130
e 115 119
e 115 125
e 115 128
e 115 143
e 115 146
e 116 118
e 116 124
e 116 130
e 116 134
e 116 139
e 116 146
e 116 150
e 117 119
e 117 125
e 117 131
e 117 136
e 117 150
e 118 123
e 118 130
e 118 136
e 118 138
e 118 145
e 118 149
e 119 123
e 119 126
e 119 127
e 119 128
e 119 130
e 119 133
e 119 134
e 119 136
e 119 140
e 119 147
e 120 125
e 120 135
e 120 149
e 121 129
e 121 132
e 121 135
e 121 137
e 121 143
e 121 146
e 121 147
e 122 124
e 122 134
e 122 135
e 122 143
e 122 150
e 123 126
e 123 130
e 123 132
e 123 136
e 123 143
e 123 145
e 123 146
e 123 147
e 124 133
e 124 138
e 124 149
e 125 127
e 125 128
e 125 139
e 125 140
e 125 141
e 125 145
e 126 134
e 126 135
e 126 148
e 127 141
e 127 145
e 127 147
e 128 129
e 128 133
e 128 134
e 128 135
e 128 139
e 129 138
e 129 139
e 129 142
e 129 144
e 129 149
e 130 135
e 130 136
e 130 141
e 130 144
e 131 134
e 131 135
e 131 140
e 131 141
e 131 150
e 132 133
e 132 135
e 132 147
e 132 149
e 133 134
e 134 139
e 135 136
e 135 142
e 135 144
e 136 137
e 136 139
e 136 142
e 136 149
e 136 150
e 137 147
e 137 149
e 138 139
e 138 146
e 139 142
e 139 144
e 139 145
e 139 146
e 139 147
e 140 144
e 140 149
e 141 143
e 141 149
e 142 144
e 142 145
e 142 150
e 143 144
e 143 150
e 144 146
e 144 147
e 144 150
e 146 147
e 146 150
e 148 149
